benchmarks/bfuzz0/1065629593256252508912323242842564119304.smt2
(set-logic QF_FP)
(declare-const x0 (_ FloatingPoint 11 53))
(declare-const x1 (_ FloatingPoint 11 53))
(declare-const x2 (_ FloatingPoint 11 53))
(declare-const x3 (_ FloatingPoint 11 53))
(declare-const x4 (_ FloatingPoint 11 53))
(declare-const x5 (_ FloatingPoint 11 53))
(declare-const x6 (_ FloatingPoint 11 53))
(declare-const x7 (_ FloatingPoint 11 53))
(declare-const x8 (_ FloatingPoint 11 53))
(declare-const x9 (_ FloatingPoint 11 53))
(declare-const x10 (_ FloatingPoint 11 53))
(declare-const x11 (_ FloatingPoint 11 53))
(assert (fp.gt (fp.add RNE x10 x0) (fp.neg x8)))
(assert (fp.eq (fp.neg x4) (fp.mul RNE x3 x5)))
(assert (fp.leq (fp.neg x9) (fp.mul RNE x6 x10)))
(assert (fp.lt (fp.sub RNE x1 x3) (fp.add RNE x5 x1)))
(assert (fp.leq (fp.sub RNE x4 x6) (fp.neg x8)))
(assert (fp.lt (fp.add RNE x10 x9) (fp.sub RNE x7 x10)))
(assert (fp.lt (fp.sub RNE x11 x9) (fp.neg x6)))
(assert (fp.geq (fp.neg x1) (fp.add RNE x8 x3)))
(assert (fp.lt (fp.sub RNE x8 x7) (fp.add RNE x2 x7)))
(assert (fp.leq (fp.add RNE x11 x4) (fp.add RNE x9 x5)))
(assert (fp.lt (fp.mul RNE x3 x5) (fp.mul RNE x10 x11)))
(assert (fp.leq (fp.add RNE x2 x0) (fp.add RNE x7 x11)))
(assert (fp.leq (fp.add RNE x8 x9) (fp.sub RNE x5 x1)))
(assert (fp.lt (fp.neg x11) (fp.add RNE x5 x1)))
(assert (fp.lt (fp.mul RNE x8 x8) (fp.add RNE x8 x1)))
(check-sat)
