db/data/1065629593256252508912323242842564119304.z3.out
sat
-------------------
443.399138900
